webassembly/ejemplos_dzn/folder11_json_69.dzn
TERM = { '.', 'in_1', 'local_0', 'local_1', 'in_2', 'in_4', 'in_3', 's(0)', 'in_0'};
null = '.';
s = 11;
n = 10;
ndeps = 2;
max_registers_sz = 5;
NR = 2;
registers = [|'local_0', 'in_4', |'local_1', 'in_3'|];
dependencies = [|'call[function_index(0)]_0', 'i32.store_3', |'i32.store_3', 'i32.store16_9'|];
GET_ENUM = { GET1, GET2, GET3, GET4, GET5, GET6, GET7};
SET_ENUM = { SET1, SET2, SET3, SET4, SET5, SET6, SET7};
TEE_ENUM = { TEE1, TEE2, TEE3, TEE4, TEE5, TEE6, TEE7};
N = 4;
OP = { 'call[function_index(0)]_0', 'i32.const_0', 'i32.store_3', 'i32.store16_9' };
in_ops = [3, 0, 2, 2 ];
out_ops = [0, 1, 0, 0 ];
in1 = ['in_0', '.', 's(0)', 'in_4' ];
in2 = ['in_1', '.', 'local_0', 'in_4' ];
in3 = ['in_2', '.', '.', '.' ];
out1 = ['.', 's(0)', '.', '.' ];
out2 = ['.', '.', '.', '.' ];
out3 = ['.', '.', '.', '.' ];
comm = [false, false, false, false ];
gas = [1, 1, 1, 1 ];
sz = [1, 1, 1, 1 ];
stor = [true, false, true, true ];
lb = [ 1, 1, 1, 1 ];
ub = [ 11, 11, 11, 11 ];
startstack = [ 'in_0', 'in_1', 'in_2', 'in_3', 'in_4', null, null, null, null, null ];
endstack = [ 'in_4', 'in_3', 'in_4', null, null, null, null, null, null, null ];
