webassembly/ejemplos_results/11/folder11_json_69.txt
value = 11;
fgas = [1, 1, 1, 1, 1, 1, 1, 1, 1, 1, 1];
fsize = [1, 1, 1, 1, 1, 1, 1, 1, 1, 1, 1];
states = 
[|    in_0,    in_1, in_2, in_3, in_4,  '.',  '.',  '.', '.',  '.'
 |    in_4,    in_4, in_4,  '.',  '.',  '.',  '.',  '.', '.',  '.'
 |    in_4,    in_4, in_4,  '.',  '.',  '.',  '.',  '.', '.',  '.'
 |    in_4,    in_4, in_4,  '.',  '.',  '.',  '.',  '.', '.',  '.'
 |    in_4,    in_4,  '.',  '.',  '.',  '.',  '.',  '.', '.', in_4
 |    in_4,    in_4,  '.',  '.',  '.',  '.',  '.', in_4, '.',  '.'
 | local_0,    in_0,  '.',  '.',  '.', in_4,  '.',  '.', '.',  '.'
 |  's(0)', local_0, in_0,  '.',  '.',  '.', in_4,  '.', '.',  '.'
 |    in_3, local_0,  '.',  '.', in_4,  '.',  '.',  '.', '.',  '.'
 | local_0,     '.',  '.', in_4,  '.',  '.',  '.',  '.', '.',  '.'
 |  's(0)', local_0,  '.',  '.', in_4,  '.',  '.',  '.', '.',  '.'
 |    in_4,    in_3, in_4,  '.',  '.',  '.',  '.',  '.', '.',  '.'
 |];
register_states = 
[| local_0, local_1, '.', '.', '.', '.', '.'
 | local_0, local_1, '.', '.', '.', '.', '.'
 |    in_4, local_1, '.', '.', '.', '.', '.'
 |    in_4,    in_4, '.', '.', '.', '.', '.'
 |    in_4,    in_4, '.', '.', '.', '.', '.'
 |    in_4,    in_4, '.', '.', '.', '.', '.'
 |    in_4,    in_4, '.', '.', '.', '.', '.'
 |    in_4,    in_4, '.', '.', '.', '.', '.'
 |    in_4,    in_4, '.', '.', '.', '.', '.'
 |    in_4,    in_3, '.', '.', '.', '.', '.'
 |    in_4,    in_3, '.', '.', '.', '.', '.'
 |    in_4,    in_3, '.', '.', '.', '.', '.'
 |];
program = [O('call[function_index(0)]_0'), TEE(TEE1), TEE(TEE2), G(GET2), O('i32.store16_9'), O('i32.store16_9'), O('i32.const_0'), O('i32.store_3'), S(SET2), O('i32.const_0'), O('i32.store_3')];
% time elapsed: 0.40 s
----------
value = 10;
fgas = [1, 1, 1, 1, 2, 1, 1, 1, 1, 1, 0];
fsize = [1, 1, 1, 1, 1, 1, 1, 1, 1, 1, 1];
states = 
[|   in_0,    in_1,    in_2,    in_3, in_4, '.',  '.', '.',  '.',  '.'
 |   in_3,  's(0)', local_0,     '.',  '.', '.',  '.', '.',  '.',  '.'
 |   in_3,  's(0)', local_0,     '.',  '.', '.',  '.', '.',  '.',  '.'
 | 's(0)',    in_3,  's(0)', local_0,  '.', '.',  '.', '.',  '.',  '.'
 |   in_3,  's(0)', local_0,     '.',  '.', '.',  '.', '.',  '.', in_2
 | 's(0)', local_0,     '.',     '.',  '.', '.',  '.', '.', in_2,  '.'
 |   in_4,    in_4,     '.',     '.',  '.', '.', in_2, '.',  '.',  '.'
 | 's(0)', local_0,     '.',     '.', in_2, '.',  '.', '.',  '.',  '.'
 |   in_0,    in_1,    in_2,     '.',  '.', '.',  '.', '.',  '.',  '.'
 |   in_4,    in_3,    in_4,     '.',  '.', '.',  '.', '.',  '.',  '.'
 |   in_4,    in_3,    in_4,     '.',  '.', '.',  '.', '.',  '.',  '.'
 |   in_4,    in_3,    in_4,     '.',  '.', '.',  '.', '.',  '.',  '.'
 |];
register_states = 
[| local_0, local_1, '.', '.', '.', '.', '.'
 | local_0, local_1, '.', '.', '.', '.', '.'
 | local_0,    in_3, '.', '.', '.', '.', '.'
 | local_0,    in_3, '.', '.', '.', '.', '.'
 | local_0,    in_3, '.', '.', '.', '.', '.'
 | local_0,    in_3, '.', '.', '.', '.', '.'
 | local_0,    in_3, '.', '.', '.', '.', '.'
 | local_0,    in_3, '.', '.', '.', '.', '.'
 | local_0,    in_3, '.', '.', '.', '.', '.'
 | local_0,    in_3, '.', '.', '.', '.', '.'
 |    in_4,    in_3, '.', '.', '.', '.', '.'
 |    in_4,    in_3, '.', '.', '.', '.', '.'
 |];
program = [O('call[function_index(0)]_0'), TEE(TEE2), O('i32.const_0'), G(GET2), POP, O('i32.store_3'), O('i32.store16_9'), O('i32.store_3'), O('call[function_index(0)]_0'), TEE(TEE1), NOP];
% time elapsed: 0.60 s
----------
value = 9;
fgas = [1, 1, 1, 1, 1, 1, 1, 1, 1, 0, 0];
fsize = [1, 1, 1, 1, 1, 1, 1, 1, 1, 1, 1];
states = 
[|   in_0,    in_1, in_2, in_3, in_4, '.',  '.', '.',  '.',  '.'
 |   in_3,    in_4, in_4,  '.',  '.', '.',  '.', '.',  '.',  '.'
 |   in_3,    in_4, in_4,  '.',  '.', '.',  '.', '.',  '.',  '.'
 | 's(0)',    in_3, in_4, in_4,  '.', '.',  '.', '.',  '.',  '.'
 |   in_3,    in_4, in_4,  '.',  '.', '.',  '.', '.',  '.', in_4
 |   in_4,    in_4,  '.',  '.',  '.', '.',  '.', '.', in_4,  '.'
 |   in_4,    in_4,  '.',  '.',  '.', '.', in_4, '.',  '.',  '.'
 |   in_4,    in_4,  '.',  '.',  '.', '.', in_4, '.',  '.',  '.'
 | 's(0)', local_0,  '.',  '.', in_4, '.',  '.', '.',  '.',  '.'
 |   in_4,    in_3, in_4,  '.',  '.', '.',  '.', '.',  '.',  '.'
 |   in_4,    in_3, in_4,  '.',  '.', '.',  '.', '.',  '.',  '.'
 |   in_4,    in_3, in_4,  '.',  '.', '.',  '.', '.',  '.',  '.'
 |];
register_states = 
[| local_0, local_1, '.', '.', '.', '.', '.'
 | local_0, local_1, '.', '.', '.', '.', '.'
 | local_0,    in_3, '.', '.', '.', '.', '.'
 | local_0,    in_3, '.', '.', '.', '.', '.'
 | local_0,    in_3, '.', '.', '.', '.', '.'
 | local_0,    in_3, '.', '.', '.', '.', '.'
 | local_0,    in_3, '.', '.', '.', '.', '.'
 |    in_4,    in_3, '.', '.', '.', '.', '.'
 |    in_4,    in_3, '.', '.', '.', '.', '.'
 |    in_4,    in_3, '.', '.', '.', '.', '.'
 |    in_4,    in_3, '.', '.', '.', '.', '.'
 |    in_4,    in_3, '.', '.', '.', '.', '.'
 |];
program = [O('call[function_index(0)]_0'), TEE(TEE2), O('i32.const_0'), G(GET2), S(SET2), O('i32.store16_9'), TEE(TEE1), O('i32.store16_9'), O('i32.store_3'), NOP, NOP];
% time elapsed: 0.64 s
----------
==========
% time elapsed: 0.70 s
% [value > 8]
